20170526 200 0 0 0
20160701 150 0 0 0
20150605 200 0 0 0
20140716 180 0 0 0
20130624 250 0 0 0
20120626 200 0 0 0
20110616 250 0 0 0
20100609 500 4000 0 0
20090525 320 2000 0 0
20080425 530 2000 0 0
20070528 260 2000 0 0
20060424 100 5000 0 0
20060112 2579 1400 0 0
20050426 500 5000 0 0
